100
128
53
55
29
2
29
46
31
26
11
18
52
15
13
2
56
40
22
10
53
2
34
40
11
63
54
46
20
22
27
24
56
14
34
46
17
23
32
29
61
21
17
10
13
8
62
62
33
38
10
17
36
11
16
23
11
58
36
29
40
43
17
61
59
24
23
46
31
14
42
3
41
1
1
27
25
51
27
23
27
15
26
31
34
50
28
16
30
22
15
60
47
16
20
25
20
19
59
49
64
59